NAME : Euclidean Random Tour : n = 100, sample = 13 
COMMENT : Coordinates are generated uniformly sampled from [0, 100000] x [0, 100000] 
DIMENSION : 100 
EDGE_WEIGHT_TYPE : EUC_2D 
TOUR_SECTION 
1
60
40
22
62
50
18
58
54
57
55
7
89
51
8
33
48
43
34
36
71
64
15
12
86
42
35
30
90
63
65
77
87
3
11
45
68
49
46
5
75
76
44
67
29
96
9
19
84
79
39
37
28
25
24
70
17
97
82
88
20
85
69
56
10
23
53
27
59
98
66
47
21
81
52
94
32
2
92
72
73
14
13
26
74
100
61
38
93
4
95
80
16
78
99
6
91
41
83
31
-1
